outputs/case_461.model.txt
profit_and_net_worth_accelerated_deterioration = False
capital_adequacy_ratio = 40
capital_improvement_completed = True
improvement_plan_executed = False
net_worth = -10
improvement_plan_submitted = False
improvement_plan_approved = True
financial_or_business_deteriorated = True
financial_deterioration_and_no_improvement = False
capital_level = 4
capital_level_severe_and_no_improvement = False
penalty = False
financial_deterioration_and_no_plan = False